
Gurobi 9.1.0 (win64) logging started Fri Dec 18 15:05:14 2020

Changed value of parameter LogFile to log/S76D6_lb.log
   Prev: log/S76D6.log  Default: 
Changed value of parameter TimeLimit to 1800.0
   Prev: inf  Min: 0.0  Max: inf  Default: inf
Gurobi Optimizer version 9.1.0 build v9.1.0rc0 (win64)
Thread count: 6 physical cores, 12 logical processors, using up to 12 threads
Optimize a model with 799760 rows, 417686 columns and 4949156 nonzeros
Model fingerprint: 0x3cc124d7
Coefficient statistics:
  Matrix range     [1e+00, 1e+03]
  Objective range  [2e+00, 9e+01]
  Bounds range     [0e+00, 0e+00]
  RHS range        [1e+00, 8e+01]

Concurrent LP optimizer: primal simplex, dual simplex, and barrier
Showing barrier log only...

Presolve removed 422743 rows and 35711 columns
Presolve time: 2.20s
Presolved: 377017 rows, 381975 columns, 2256225 nonzeros

Ordering time: 0.01s

Barrier statistics:
 Dense cols : 75
 AA' NZ     : 3.600e+04
 Factor NZ  : 5.858e+04 (roughly 5 MBytes of memory)
 Factor Ops : 4.020e+06 (less than 1 second per iteration)
 Threads    : 4

                  Objective                Residual
Iter       Primal          Dual         Primal    Dual     Compl     Time
   0   2.58129819e+06  0.00000000e+00  5.56e+02 0.00e+00  1.73e+03     2s
   1   2.36646489e+05 -5.95682028e+05  1.79e+01 7.79e+01  4.35e+02     2s
   2   1.25680551e+05 -4.56916848e+04  7.79e-02 5.07e+00  3.71e+01     2s
   3   2.24931971e+04 -4.48636899e+03  1.10e-15 3.07e-05  2.38e+00     2s
   4   4.67464363e+03 -3.51453891e+02  1.87e-16 2.79e-06  4.42e-01     2s
   5   3.23122531e+03 -3.65204424e+01  1.43e-16 1.27e-05  2.87e-01     2s
   6   2.04007014e+03  1.37585997e+02  8.99e-17 2.17e-07  1.67e-01     3s
   7   1.52810165e+03  3.31250113e+02  9.32e-16 8.58e-08  1.05e-01     3s
   8   1.19771086e+03  4.08666337e+02  2.93e-15 5.93e-08  6.93e-02     3s
   9   7.81491143e+02  4.50667761e+02  1.44e-13 2.42e-08  2.91e-02     3s
  10   5.49520410e+02  4.73813267e+02  2.99e-14 1.78e-09  6.65e-03     3s
  11   4.87310741e+02  4.83312588e+02  9.52e-15 3.04e-10  3.52e-04     3s
  12   4.85665929e+02  4.85227877e+02  2.00e-14 3.26e-11  3.85e-05     3s
  13   4.85526116e+02  4.85525447e+02  6.41e-15 9.09e-13  5.87e-08     3s
  14   4.85525797e+02  4.85525797e+02  2.14e-15 9.09e-13  2.24e-13     3s

Barrier solved model in 14 iterations and 2.56 seconds
Optimal objective 4.85525797e+02

Crossover log...

      75 DPushes remaining with DInf 0.0000000e+00                 3s
       0 DPushes remaining with DInf 0.0000000e+00                 3s

      78 PPushes remaining with PInf 0.0000000e+00                 3s
       0 PPushes remaining with PInf 0.0000000e+00                 3s

  Push phase complete: Pinf 0.0000000e+00, Dinf 5.1125770e-14      3s

Iteration    Objective       Primal Inf.    Dual Inf.      Time
     156    4.8552580e+02   0.000000e+00   0.000000e+00      3s

Use crossover to convert LP symmetric solution to basic solution...
Crossover log...

       0 DPushes remaining with DInf 0.0000000e+00                 3s

    2679 PPushes remaining with PInf 0.0000000e+00                 3s
       0 PPushes remaining with PInf 0.0000000e+00                 3s

  Push phase complete: Pinf 0.0000000e+00, Dinf 5.8166723e+01      3s

Iteration    Objective       Primal Inf.    Dual Inf.      Time
    7869    4.8552580e+02   0.000000e+00   5.816672e+01      3s
    8152    4.8552580e+02   0.000000e+00   0.000000e+00      4s

Solved with primal simplex
Solved in 8835 iterations and 3.95 seconds
Optimal objective  4.855257973e+02
